\ Model model 1
\ LP format - for model browsing. Use MPS format to capture full model detail.
Minimize
 
Subject To
 x_1: x[300520083,2.01] + x[300520083,2.02] + x[300520083,2.03]
   + x[300520083,2.05&2.09] = 1
 x_2: x[300520164,2.01] + x[300520164,2.02] + x[300520164,2.03]
   + x[300520164,2.05&2.09] = 1
 x_3: x[300520896,2.01] + x[300520896,2.02] + x[300520896,2.03]
   + x[300520896,2.05&2.09] = 1
 x_4: x[300521625,2.01] + x[300521625,2.02] + x[300521625,2.03]
   + x[300521625,2.05&2.09] = 1
 x_5: x[300521697,2.01] + x[300521697,2.02] + x[300521697,2.03]
   + x[300521697,2.05&2.09] = 1
 x_6: x[300521718,2.01] + x[300521718,2.02] + x[300521718,2.03]
   + x[300521718,2.05&2.09] = 1
 x_7: x[300521852,2.01] + x[300521852,2.02] + x[300521852,2.03]
   + x[300521852,2.05&2.09] = 1
 x_8: x[300521971,2.01] + x[300521971,2.02] + x[300521971,2.03]
   + x[300521971,2.05&2.09] = 1
 x_9: x[300522629,2.01] + x[300522629,2.02] + x[300522629,2.03]
   + x[300522629,2.05&2.09] = 1
 y_1_1: - x[300521625,2.01] + y[1116GLA02-10-0006,2.01] = 0
 z_0_1_1: z[1116GLA02-10-0006,2.01] >= 0
 z_d_1_1: - y[1116GLA02-10-0006,2.01] + z[1116GLA02-10-0006,2.01] >= 0
 y_2_1: - x[300521625,2.01] + y[1116GLA02-10-0010,2.01] = 0
 z_0_2_1: z[1116GLA02-10-0010,2.01] >= 0
 z_d_2_1: - y[1116GLA02-10-0010,2.01] + z[1116GLA02-10-0010,2.01] >= 0
 y_3_1: - 2 x[300520896,2.01] + y[1116GLB01-10-0001,2.01] = 0
 z_0_3_1: z[1116GLB01-10-0001,2.01] >= 0
 z_d_3_1: - y[1116GLB01-10-0001,2.01] + z[1116GLB01-10-0001,2.01] >= 0
 y_4_1: - 5 x[300521697,2.01] - 4 x[300521718,2.01] - 5 x[300521852,2.01]
   - 2 x[300521971,2.01] + y[1116GLT01-10-0001,2.01] = 0
 z_0_4_1: z[1116GLT01-10-0001,2.01] >= 0
 z_d_4_1: - y[1116GLT01-10-0001,2.01] + z[1116GLT01-10-0001,2.01] >= 0
 y_5_1: - 5 x[300520164,2.01] - 3 x[300520896,2.01] - x[300521718,2.01]
   - 3 x[300521971,2.01] + y[1116GLZ01-10-0001,2.01] = 0
 z_0_5_1: z[1116GLZ01-10-0001,2.01] >= 0
 z_d_5_1: - y[1116GLZ01-10-0001,2.01] + z[1116GLZ01-10-0001,2.01] >= 0
 y_6_1: - x[300521625,2.01] + y[1116GLZ01-10-0004,2.01] = 0
 z_0_6_1: z[1116GLZ01-10-0004,2.01] >= 0
 z_d_6_1: - y[1116GLZ01-10-0004,2.01] + z[1116GLZ01-10-0004,2.01] >= -2
 y_7_1: - 2 x[300521625,2.01] + y[1116GLZ01-10-0006,2.01] = 0
 z_0_7_1: z[1116GLZ01-10-0006,2.01] >= 0
 z_d_7_1: - y[1116GLZ01-10-0006,2.01] + z[1116GLZ01-10-0006,2.01] >= 0
 y_8_1: - 7 x[300520083,2.01] - 7 x[300522629,2.01]
   + y[1116GLZ02-10-0004,2.01] = 0
 z_0_8_1: z[1116GLZ02-10-0004,2.01] >= 0
 z_d_8_1: - y[1116GLZ02-10-0004,2.01] + z[1116GLZ02-10-0004,2.01] >= 0
 y_1_2: - x[300521625,2.02] + y[1116GLA02-10-0006,2.02] = 0
 z_0_1_2: z[1116GLA02-10-0006,2.02] >= 0
 z_d_1_2: - y[1116GLA02-10-0006,2.02] + z[1116GLA02-10-0006,2.02] >= 0
 y_2_2: - x[300521625,2.02] + y[1116GLA02-10-0010,2.02] = 0
 z_0_2_2: z[1116GLA02-10-0010,2.02] >= 0
 z_d_2_2: - y[1116GLA02-10-0010,2.02] + z[1116GLA02-10-0010,2.02] >= 0
 y_3_2: - 2 x[300520896,2.02] + y[1116GLB01-10-0001,2.02] = 0
 z_0_3_2: z[1116GLB01-10-0001,2.02] >= 0
 z_d_3_2: - y[1116GLB01-10-0001,2.02] + z[1116GLB01-10-0001,2.02] >= -2
 y_4_2: - 5 x[300521697,2.02] - 4 x[300521718,2.02] - 5 x[300521852,2.02]
   - 2 x[300521971,2.02] + y[1116GLT01-10-0001,2.02] = 0
 z_0_4_2: z[1116GLT01-10-0001,2.02] >= 0
 z_d_4_2: - y[1116GLT01-10-0001,2.02] + z[1116GLT01-10-0001,2.02] >= -5
 y_5_2: - 5 x[300520164,2.02] - 3 x[300520896,2.02] - x[300521718,2.02]
   - 3 x[300521971,2.02] + y[1116GLZ01-10-0001,2.02] = 0
 z_0_5_2: z[1116GLZ01-10-0001,2.02] >= 0
 z_d_5_2: - y[1116GLZ01-10-0001,2.02] + z[1116GLZ01-10-0001,2.02] >= -5
 y_6_2: - x[300521625,2.02] + y[1116GLZ01-10-0004,2.02] = 0
 z_0_6_2: z[1116GLZ01-10-0004,2.02] >= 0
 z_d_6_2: - y[1116GLZ01-10-0004,2.02] + z[1116GLZ01-10-0004,2.02] >= 0
 y_7_2: - 2 x[300521625,2.02] + y[1116GLZ01-10-0006,2.02] = 0
 z_0_7_2: z[1116GLZ01-10-0006,2.02] >= 0
 z_d_7_2: - y[1116GLZ01-10-0006,2.02] + z[1116GLZ01-10-0006,2.02] >= 0
 y_8_2: - 7 x[300520083,2.02] - 7 x[300522629,2.02]
   + y[1116GLZ02-10-0004,2.02] = 0
 z_0_8_2: z[1116GLZ02-10-0004,2.02] >= 0
 z_d_8_2: - y[1116GLZ02-10-0004,2.02] + z[1116GLZ02-10-0004,2.02] >= -12
 y_1_3: - x[300521625,2.03] + y[1116GLA02-10-0006,2.03] = 0
 z_0_1_3: z[1116GLA02-10-0006,2.03] >= 0
 z_d_1_3: - y[1116GLA02-10-0006,2.03] + z[1116GLA02-10-0006,2.03] >= 0
 y_2_3: - x[300521625,2.03] + y[1116GLA02-10-0010,2.03] = 0
 z_0_2_3: z[1116GLA02-10-0010,2.03] >= 0
 z_d_2_3: - y[1116GLA02-10-0010,2.03] + z[1116GLA02-10-0010,2.03] >= 0
 y_3_3: - 2 x[300520896,2.03] + y[1116GLB01-10-0001,2.03] = 0
 z_0_3_3: z[1116GLB01-10-0001,2.03] >= 0
 z_d_3_3: - y[1116GLB01-10-0001,2.03] + z[1116GLB01-10-0001,2.03] >= 0
 y_4_3: - 5 x[300521697,2.03] - 4 x[300521718,2.03] - 5 x[300521852,2.03]
   - 2 x[300521971,2.03] + y[1116GLT01-10-0001,2.03] = 0
 z_0_4_3: z[1116GLT01-10-0001,2.03] >= 0
 z_d_4_3: - y[1116GLT01-10-0001,2.03] + z[1116GLT01-10-0001,2.03] >= -13
 y_5_3: - 5 x[300520164,2.03] - 3 x[300520896,2.03] - x[300521718,2.03]
   - 3 x[300521971,2.03] + y[1116GLZ01-10-0001,2.03] = 0
 z_0_5_3: z[1116GLZ01-10-0001,2.03] >= 0
 z_d_5_3: - y[1116GLZ01-10-0001,2.03] + z[1116GLZ01-10-0001,2.03] >= -39
 y_6_3: - x[300521625,2.03] + y[1116GLZ01-10-0004,2.03] = 0
 z_0_6_3: z[1116GLZ01-10-0004,2.03] >= 0
 z_d_6_3: - y[1116GLZ01-10-0004,2.03] + z[1116GLZ01-10-0004,2.03] >= 0
 y_7_3: - 2 x[300521625,2.03] + y[1116GLZ01-10-0006,2.03] = 0
 z_0_7_3: z[1116GLZ01-10-0006,2.03] >= 0
 z_d_7_3: - y[1116GLZ01-10-0006,2.03] + z[1116GLZ01-10-0006,2.03] >= 0
 y_8_3: - 7 x[300520083,2.03] - 7 x[300522629,2.03]
   + y[1116GLZ02-10-0004,2.03] = 0
 z_0_8_3: z[1116GLZ02-10-0004,2.03] >= 0
 z_d_8_3: - y[1116GLZ02-10-0004,2.03] + z[1116GLZ02-10-0004,2.03] >= -67
 y_1_4: - x[300521625,2.05&2.09] + y[1116GLA02-10-0006,2.05&2.09] = 0
 z_0_1_4: z[1116GLA02-10-0006,2.05&2.09] >= 0
 z_d_1_4: - y[1116GLA02-10-0006,2.05&2.09] + z[1116GLA02-10-0006,2.05&2.09]
   >= -1
 y_2_4: - x[300521625,2.05&2.09] + y[1116GLA02-10-0010,2.05&2.09] = 0
 z_0_2_4: z[1116GLA02-10-0010,2.05&2.09] >= 0
 z_d_2_4: - y[1116GLA02-10-0010,2.05&2.09] + z[1116GLA02-10-0010,2.05&2.09]
   >= -1
 y_3_4: - 2 x[300520896,2.05&2.09] + y[1116GLB01-10-0001,2.05&2.09] = 0
 z_0_3_4: z[1116GLB01-10-0001,2.05&2.09] >= 0
 z_d_3_4: - y[1116GLB01-10-0001,2.05&2.09] + z[1116GLB01-10-0001,2.05&2.09]
   >= 0
 y_4_4: - 5 x[300521697,2.05&2.09] - 4 x[300521718,2.05&2.09]
   - 5 x[300521852,2.05&2.09] - 2 x[300521971,2.05&2.09]
   + y[1116GLT01-10-0001,2.05&2.09] = 0
 z_0_4_4: z[1116GLT01-10-0001,2.05&2.09] >= 0
 z_d_4_4: - y[1116GLT01-10-0001,2.05&2.09] + z[1116GLT01-10-0001,2.05&2.09]
   >= 0
 y_5_4: - 5 x[300520164,2.05&2.09] - 3 x[300520896,2.05&2.09]
   - x[300521718,2.05&2.09] - 3 x[300521971,2.05&2.09]
   + y[1116GLZ01-10-0001,2.05&2.09] = 0
 z_0_5_4: z[1116GLZ01-10-0001,2.05&2.09] >= 0
 z_d_5_4: - y[1116GLZ01-10-0001,2.05&2.09] + z[1116GLZ01-10-0001,2.05&2.09]
   >= -2
 y_6_4: - x[300521625,2.05&2.09] + y[1116GLZ01-10-0004,2.05&2.09] = 0
 z_0_6_4: z[1116GLZ01-10-0004,2.05&2.09] >= 0
 z_d_6_4: - y[1116GLZ01-10-0004,2.05&2.09] + z[1116GLZ01-10-0004,2.05&2.09]
   >= 0
 y_7_4: - 2 x[300521625,2.05&2.09] + y[1116GLZ01-10-0006,2.05&2.09] = 0
 z_0_7_4: z[1116GLZ01-10-0006,2.05&2.09] >= 0
 z_d_7_4: - y[1116GLZ01-10-0006,2.05&2.09] + z[1116GLZ01-10-0006,2.05&2.09]
   >= -2
 y_8_4: - 7 x[300520083,2.05&2.09] - 7 x[300522629,2.05&2.09]
   + y[1116GLZ02-10-0004,2.05&2.09] = 0
 z_0_8_4: z[1116GLZ02-10-0004,2.05&2.09] >= 0
 z_d_8_4: - y[1116GLZ02-10-0004,2.05&2.09] + z[1116GLZ02-10-0004,2.05&2.09]
   >= -1
Bounds
Binaries
 x[300520083,2.01] x[300520083,2.02] x[300520083,2.03]
 x[300520083,2.05&2.09] x[300520164,2.01] x[300520164,2.02]
 x[300520164,2.03] x[300520164,2.05&2.09] x[300520896,2.01]
 x[300520896,2.02] x[300520896,2.03] x[300520896,2.05&2.09]
 x[300521625,2.01] x[300521625,2.02] x[300521625,2.03]
 x[300521625,2.05&2.09] x[300521697,2.01] x[300521697,2.02]
 x[300521697,2.03] x[300521697,2.05&2.09] x[300521718,2.01]
 x[300521718,2.02] x[300521718,2.03] x[300521718,2.05&2.09]
 x[300521852,2.01] x[300521852,2.02] x[300521852,2.03]
 x[300521852,2.05&2.09] x[300521971,2.01] x[300521971,2.02]
 x[300521971,2.03] x[300521971,2.05&2.09] x[300522629,2.01]
 x[300522629,2.02] x[300522629,2.03] x[300522629,2.05&2.09]
Generals
 y[1116GLA02-10-0006,2.01] y[1116GLA02-10-0006,2.02]
 y[1116GLA02-10-0006,2.03] y[1116GLA02-10-0006,2.05&2.09]
 y[1116GLA02-10-0010,2.01] y[1116GLA02-10-0010,2.02]
 y[1116GLA02-10-0010,2.03] y[1116GLA02-10-0010,2.05&2.09]
 y[1116GLB01-10-0001,2.01] y[1116GLB01-10-0001,2.02]
 y[1116GLB01-10-0001,2.03] y[1116GLB01-10-0001,2.05&2.09]
 y[1116GLT01-10-0001,2.01] y[1116GLT01-10-0001,2.02]
 y[1116GLT01-10-0001,2.03] y[1116GLT01-10-0001,2.05&2.09]
 y[1116GLZ01-10-0001,2.01] y[1116GLZ01-10-0001,2.02]
 y[1116GLZ01-10-0001,2.03] y[1116GLZ01-10-0001,2.05&2.09]
 y[1116GLZ01-10-0004,2.01] y[1116GLZ01-10-0004,2.02]
 y[1116GLZ01-10-0004,2.03] y[1116GLZ01-10-0004,2.05&2.09]
 y[1116GLZ01-10-0006,2.01] y[1116GLZ01-10-0006,2.02]
 y[1116GLZ01-10-0006,2.03] y[1116GLZ01-10-0006,2.05&2.09]
 y[1116GLZ02-10-0004,2.01] y[1116GLZ02-10-0004,2.02]
 y[1116GLZ02-10-0004,2.03] y[1116GLZ02-10-0004,2.05&2.09]
 z[1116GLA02-10-0006,2.01] z[1116GLA02-10-0006,2.02]
 z[1116GLA02-10-0006,2.03] z[1116GLA02-10-0006,2.05&2.09]
 z[1116GLA02-10-0010,2.01] z[1116GLA02-10-0010,2.02]
 z[1116GLA02-10-0010,2.03] z[1116GLA02-10-0010,2.05&2.09]
 z[1116GLB01-10-0001,2.01] z[1116GLB01-10-0001,2.02]
 z[1116GLB01-10-0001,2.03] z[1116GLB01-10-0001,2.05&2.09]
 z[1116GLT01-10-0001,2.01] z[1116GLT01-10-0001,2.02]
 z[1116GLT01-10-0001,2.03] z[1116GLT01-10-0001,2.05&2.09]
 z[1116GLZ01-10-0001,2.01] z[1116GLZ01-10-0001,2.02]
 z[1116GLZ01-10-0001,2.03] z[1116GLZ01-10-0001,2.05&2.09]
 z[1116GLZ01-10-0004,2.01] z[1116GLZ01-10-0004,2.02]
 z[1116GLZ01-10-0004,2.03] z[1116GLZ01-10-0004,2.05&2.09]
 z[1116GLZ01-10-0006,2.01] z[1116GLZ01-10-0006,2.02]
 z[1116GLZ01-10-0006,2.03] z[1116GLZ01-10-0006,2.05&2.09]
 z[1116GLZ02-10-0004,2.01] z[1116GLZ02-10-0004,2.02]
 z[1116GLZ02-10-0004,2.03] z[1116GLZ02-10-0004,2.05&2.09]
End
